int NumberPatients = 91
int NumberOfRooms = 3
int NumberSurgeons = 17
int NumberOfDays = 6
Duration = [131,117,119,66,66,98,93,32,103,35,39,105,66,119,208,119,103,98,66,32,60,103,47,105,115,60,32,118,47,71,47,47,101,166,159,32,60,53,46,119,119,234,85,55,60,119,119,66,32,98,31,131,32,238,47,238,60,132,32,47,103,157,131,66,47,60,98,105,98,35,107,119,93,119,47,98,33,93,47,58,38,66,47,61,166,103,32,50,103,157,119];
Priority = [0,0,0,0,0,0,0,0,0,0,0,0,0,0,0,0,0,0,0,0,0,0,0,0,0,0,0,0,0,0,0,0,0,0,0,0,0,0,0,0,0,0,0,0,0,0,0,0,0,0,0,0,0,0,0,0,0,0,0,0,0,0,0,0,0,0,0,0,0,0,0,0,0,0,0,0,0,0,0,0,0,0,0,0,0,0,0,0,0,0,0];
Waiting = [67,178,135,155,23,120,50,78,211,73,52,25,59,37,71,120,23,220,424,46,37,45,56,24,494,127,487,113,204,213,78,604,175,65,387,72,253,46,66,410,95,120,116,25,37,253,133,25,387,155,50,107,56,79,84,66,57,161,65,106,58,50,144,275,193,270,225,77,190,310,277,253,36,317,84,58,85,354,46,51,478,21,37,137,190,21,46,39,120,66,113];
Surgeon = [2,6,4,6,3,1,4,2,6,3,1,4,7,6,1,6,5,1,10,6,7,3,1,5,5,2,5,2,1,4,6,2,5,8,2,8,8,5,14,6,4,1,6,1,3,5,1,3,2,2,3,2,2,4,4,3,2,1,1,5,1,1,6,4,3,3,2,2,4,4,4,2,3,8,9,5,4,8,8,6,6,10,6,8,5,6,1,8,5,4,4];
BlockAvailability = [[[0,1],[1,0],[0,0]],[[0,0],[0,0],[1,0]],[[0,0],[0,0],[0,0]],[[0,1],[1,0],[0,1]],[[0,0],[0,0],[0,0]],[[1,0],[0,0],[1,0]]];
SurgeonAvailability = [[[1,1],[1,1],[1,1],[1,1],[1,1],[1,1]],[[1,1],[1,1],[1,1],[1,1],[1,1],[1,1]],[[1,1],[1,1],[1,1],[1,1],[1,1],[1,1]],[[1,1],[1,1],[1,1],[1,1],[1,1],[1,1]],[[1,1],[1,1],[1,1],[1,1],[1,1],[1,1]],[[1,1],[1,1],[1,1],[1,1],[1,1],[1,1]],[[1,1],[1,1],[1,1],[1,1],[1,1],[1,1]],[[1,1],[1,1],[1,1],[1,1],[1,1],[1,1]],[[1,1],[1,1],[1,1],[1,1],[1,1],[1,1]],[[1,1],[1,1],[1,1],[1,1],[1,1],[1,1]],[[1,1],[1,1],[1,1],[1,1],[1,1],[1,1]],[[1,1],[1,1],[1,1],[1,1],[1,1],[1,1]],[[1,1],[1,1],[1,1],[1,1],[1,1],[1,1]],[[1,1],[1,1],[1,1],[1,1],[1,1],[1,1]],[[1,1],[1,1],[1,1],[1,1],[1,1],[1,1]],[[1,1],[1,1],[1,1],[1,1],[1,1],[1,1]],[[1,1],[1,1],[1,1],[1,1],[1,1],[1,1]]];
